letting initialStacks = [5, 49, 37, 45, 33, 7, 44, 3, 11, 17, 13, 24, 1, 23, 15, 47, 30, 40, 50, 36, 14, 27, 51, 43, 34, 6, 29, 4, 41, 21, 8, 39, 9, 22, 16, 26, 25, 18, 10, 48, 31, 32, 35, 42, 2, 28, 20, 19, 38, 12, 46]
